GPU_version/outputs/r209.out
Total number of lines in the file: 110
Total number of nodes including depot: 101
Customer 1: (35, 35), Demand: 0, Time Window: [0, 1000], Service Time: 0
Customer 2: (41, 49), Demand: 10, Time Window: [636, 919], Service Time: 10
Customer 3: (35, 17), Demand: 7, Time Window: [74, 351], Service Time: 10
Customer 4: (55, 45), Demand: 13, Time Window: [498, 613], Service Time: 10
Customer 5: (55, 20), Demand: 19, Time Window: [470, 965], Service Time: 10
calling MST kernel
Post Processing Route
Post 2 opt Processing Route
2-opt between 9 and 11 improved cost from 1443.56 to 1442.95
2-opt between 13 and 14 improved cost from 1442.95 to 1442.63
Elapsed time: 0.648688 seconds
Final Route: 
Route #1: 28 53 58 13 94 
Route #2: 95 97 92 37 
Route #3: 98 100 59 99 5 84 17 60 
Route #4: 18 
Route #5: 52 83 8 45 82 7 88 62 10 90 32 
Route #6: 63 11 19 31 70 30 20 66 48 
Route #7: 47 36 49 64 46 96 93 
Route #8: 85 61 16 86 44 14 38 91 
Route #9: 87 
Route #10: 2 57 15 43 42 6 89 
Route #11: 40 26 
Route #12: 12 80 68 77 3 79 78 34 33 
Route #13: 81 9 
Route #14: 71 65 35 51 76 50 1 
Route #15: 69 29 24 54 55 25 
Route #16: 21 73 72 74 
Route #17: 75 56 39 67 23 4 22 41 27 
Route #18: Total Distance: 1443.56
Final route is valid
